(set-logic QF_LRA)
(declare-fun fluent_ready_plt1_p1_t0@1 () Bool)
(declare-fun fluent_pallet_at_plt0_p0@1 () Bool)
(declare-fun fluent_robot_at_r0_p0@0 () Bool)
(declare-fun fluent_robot_at_r0_p1@0 () Bool)
(declare-fun fluent_pallet_at_plt1_p0@1 () Bool)
(declare-fun fluent_robot_free_r0@0 () Bool)
(declare-fun fluent_pallet_at_plt0_p1@1 () Bool)
(declare-fun fluent_pallet_at_plt1_p1@1 () Bool)
(declare-fun fluent_pallet_at_plt0_p0@0 () Bool)
(declare-fun fluent_pallet_at_plt1_p0@0 () Bool)
(declare-fun fluent_robot_has_r0_plt0@1 () Bool)
(declare-fun fluent_pallet_at_plt0_p1@0 () Bool)
(declare-fun fluent_robot_has_r0_plt1@1 () Bool)
(declare-fun fluent_pallet_at_plt1_p1@0 () Bool)
(declare-fun fluent_battery_level_r0@0 () Real)
(declare-fun fluent_treated_plt0_t0@1 () Bool)
(declare-fun fluent_treated_plt1_t0@1 () Bool)
(declare-fun fluent_position_free_p0@1 () Bool)
(declare-fun fluent_position_free_p1@1 () Bool)
(declare-fun fluent_position_free_p0@0 () Bool)
(declare-fun fluent_position_free_p1@0 () Bool)
(declare-fun act_make_treatment@1 () Bool)
(declare-fun act_load_at_depot@1 () Bool)
(declare-fun fluent_robot_has_r0_plt0@0 () Bool)
(declare-fun fluent_robot_has_r0_plt1@0 () Bool)
(declare-fun parameter_load_at_depot_pos@1 () Real)
(declare-fun fluent_ready_plt0_p0_t0@0 () Bool)
(declare-fun fluent_ready_plt1_p0_t0@0 () Bool)
(declare-fun fluent_ready_plt0_p1_t0@0 () Bool)
(declare-fun fluent_ready_plt1_p1_t0@0 () Bool)
(declare-fun parameter_load_at_depot_r@1 () Real)
(declare-fun parameter_load_at_depot_pallet@1 () Real)
(declare-fun fluent_treated_plt0_t0@0 () Bool)
(declare-fun fluent_treated_plt1_t0@0 () Bool)
(declare-fun act_move@1 () Bool)
(declare-fun parameter_move_topos@1 () Real)
(declare-fun parameter_move_frompos@1 () Real)
(declare-fun act_unload_at_depot@1 () Bool)
(declare-fun parameter_unload_at_depot_pos@1 () Real)
(declare-fun parameter_move_r@1 () Real)
(declare-fun parameter_unload_at_depot_r@1 () Real)
(declare-fun parameter_unload_at_depot_pallet@1 () Real)
(declare-fun fluent_robot_at_r0_p0@1 () Bool)
(declare-fun fluent_robot_at_r0_p1@1 () Bool)
(declare-fun fluent_battery_level_r0@1 () Real)
(declare-fun act_load@1 () Bool)
(declare-fun parameter_load_t@1 () Real)
(declare-fun dur_make_treatment@1 () Real)
(declare-fun parameter_load_pos@1 () Real)
(declare-fun t@1 () Real)
(declare-fun parameter_load_pallet@1 () Real)
(declare-fun parameter_make_treatment_t@1 () Real)
(declare-fun parameter_make_treatment_pallet@1 () Real)
(declare-fun parameter_load_r@1 () Real)
(declare-fun parameter_make_treatment_r@1 () Real)
(declare-fun parameter_make_treatment_pos@1 () Real)
(declare-fun fluent_robot_free_r0@1 () Bool)
(declare-fun fluent_ready_plt0_p0_t0@1 () Bool)
(declare-fun fluent_ready_plt1_p0_t0@1 () Bool)
(declare-fun fluent_ready_plt0_p1_t0@1 () Bool)
(assert (let ((.def_0 (= parameter_make_treatment_pos@1 2.0))) (let ((.def_1 (= parameter_make_treatment_pos@1 1.0))) (let ((.def_2 (or .def_1 .def_0))) (let ((.def_3 (= parameter_make_treatment_r@1 0.0))) (let ((.def_4 (= parameter_load_r@1 0.0))) (let ((.def_5 (= parameter_make_treatment_pallet@1 4.0))) (let ((.def_6 (= parameter_make_treatment_pallet@1 3.0))) (let ((.def_7 (or .def_6 .def_5))) (let ((.def_8 (= parameter_make_treatment_t@1 5.0))) (let ((.def_9 (= parameter_load_pallet@1 4.0))) (let ((.def_10 (= parameter_load_pallet@1 3.0))) (let ((.def_11 (or .def_10 .def_9))) (let ((.def_12 (= parameter_load_pos@1 2.0))) (let ((.def_13 (= parameter_load_pos@1 1.0))) (let ((.def_14 (or .def_13 .def_12))) (let ((.def_15 (= parameter_load_t@1 5.0))) (let ((.def_16 (<= fluent_battery_level_r0@1 100.0))) (let ((.def_17 (<= 0.0 fluent_battery_level_r0@1))) (let ((.def_18 (= parameter_unload_at_depot_pallet@1 4.0))) (let ((.def_19 (= parameter_unload_at_depot_pallet@1 3.0))) (let ((.def_20 (or .def_19 .def_18))) (let ((.def_21 (= parameter_unload_at_depot_r@1 0.0))) (let ((.def_22 (= parameter_unload_at_depot_pos@1 2.0))) (let ((.def_23 (= parameter_unload_at_depot_pos@1 1.0))) (let ((.def_24 (or .def_23 .def_22))) (let ((.def_25 (= parameter_move_r@1 0.0))) (let ((.def_26 (= parameter_move_frompos@1 2.0))) (let ((.def_27 (= parameter_move_frompos@1 1.0))) (let ((.def_28 (or .def_27 .def_26))) (let ((.def_29 (= parameter_move_topos@1 2.0))) (let ((.def_30 (= parameter_move_topos@1 1.0))) (let ((.def_31 (or .def_30 .def_29))) (let ((.def_32 (= parameter_load_at_depot_pallet@1 4.0))) (let ((.def_33 (= parameter_load_at_depot_pallet@1 3.0))) (let ((.def_34 (or .def_33 .def_32))) (let ((.def_35 (= parameter_load_at_depot_r@1 0.0))) (let ((.def_36 (= parameter_load_at_depot_pos@1 2.0))) (let ((.def_37 (= parameter_load_at_depot_pos@1 1.0))) (let ((.def_38 (or .def_37 .def_36))) (let ((.def_39 (and act_move@1 true .def_25))) (let ((.def_40 (= fluent_battery_level_r0@0 fluent_battery_level_r0@1))) (let ((.def_41 (not .def_40))) (let ((.def_42 (=> .def_41 .def_39))) (let ((.def_43 (and act_make_treatment@1 true .def_5 .def_0))) (let ((.def_44 (and act_unload_at_depot@1 true .def_18 .def_22))) (let ((.def_45 (and .def_44 .def_43))) (let ((.def_46 (not .def_45))) (let ((.def_47 (and act_load_at_depot@1 true .def_32 .def_36))) (let ((.def_48 (and .def_47 .def_43))) (let ((.def_49 (not .def_48))) (let ((.def_50 (and .def_47 .def_44))) (let ((.def_51 (not .def_50))) (let ((.def_52 (and act_load@1 true .def_9 .def_12))) (let ((.def_53 (and .def_52 .def_43))) (let ((.def_54 (not .def_53))) (let ((.def_55 (and .def_52 .def_44))) (let ((.def_56 (not .def_55))) (let ((.def_57 (and .def_52 .def_47))) (let ((.def_58 (not .def_57))) (let ((.def_59 (or .def_52 .def_47 .def_44 .def_43))) (let ((.def_60 (= fluent_pallet_at_plt1_p1@0 fluent_pallet_at_plt1_p1@1))) (let ((.def_61 (not .def_60))) (let ((.def_62 (=> .def_61 .def_59))) (let ((.def_63 (and act_make_treatment@1 true .def_6 .def_0))) (let ((.def_64 (and act_unload_at_depot@1 true .def_19 .def_22))) (let ((.def_65 (and .def_64 .def_63))) (let ((.def_66 (not .def_65))) (let ((.def_67 (and act_load_at_depot@1 true .def_33 .def_36))) (let ((.def_68 (and .def_67 .def_63))) (let ((.def_69 (not .def_68))) (let ((.def_70 (and .def_67 .def_64))) (let ((.def_71 (not .def_70))) (let ((.def_72 (and act_load@1 true .def_10 .def_12))) (let ((.def_73 (and .def_72 .def_63))) (let ((.def_74 (not .def_73))) (let ((.def_75 (and .def_72 .def_64))) (let ((.def_76 (not .def_75))) (let ((.def_77 (and .def_72 .def_67))) (let ((.def_78 (not .def_77))) (let ((.def_79 (or .def_72 .def_67 .def_64 .def_63))) (let ((.def_80 (= fluent_pallet_at_plt0_p1@0 fluent_pallet_at_plt0_p1@1))) (let ((.def_81 (not .def_80))) (let ((.def_82 (=> .def_81 .def_79))) (let ((.def_83 (and act_make_treatment@1 true .def_5 .def_1))) (let ((.def_84 (and act_unload_at_depot@1 true .def_18 .def_23))) (let ((.def_85 (and .def_84 .def_83))) (let ((.def_86 (not .def_85))) (let ((.def_87 (and act_load_at_depot@1 true .def_32 .def_37))) (let ((.def_88 (and .def_87 .def_83))) (let ((.def_89 (not .def_88))) (let ((.def_90 (and .def_87 .def_84))) (let ((.def_91 (not .def_90))) (let ((.def_92 (and act_load@1 true .def_9 .def_13))) (let ((.def_93 (and .def_92 .def_83))) (let ((.def_94 (not .def_93))) (let ((.def_95 (and .def_92 .def_84))) (let ((.def_96 (not .def_95))) (let ((.def_97 (and .def_92 .def_87))) (let ((.def_98 (not .def_97))) (let ((.def_99 (or .def_92 .def_87 .def_84 .def_83))) (let ((.def_100 (= fluent_pallet_at_plt1_p0@0 fluent_pallet_at_plt1_p0@1))) (let ((.def_101 (not .def_100))) (let ((.def_102 (=> .def_101 .def_99))) (let ((.def_103 (and act_make_treatment@1 true .def_6 .def_1))) (let ((.def_104 (and act_unload_at_depot@1 true .def_19 .def_23))) (let ((.def_105 (and .def_104 .def_103))) (let ((.def_106 (not .def_105))) (let ((.def_107 (and act_load_at_depot@1 true .def_33 .def_37))) (let ((.def_108 (and .def_107 .def_103))) (let ((.def_109 (not .def_108))) (let ((.def_110 (and .def_107 .def_104))) (let ((.def_111 (not .def_110))) (let ((.def_112 (and act_load@1 true .def_10 .def_13))) (let ((.def_113 (and .def_112 .def_103))) (let ((.def_114 (not .def_113))) (let ((.def_115 (and .def_112 .def_104))) (let ((.def_116 (not .def_115))) (let ((.def_117 (and .def_112 .def_107))) (let ((.def_118 (not .def_117))) (let ((.def_119 (or .def_112 .def_107 .def_104 .def_103))) (let ((.def_120 (= fluent_pallet_at_plt0_p0@0 fluent_pallet_at_plt0_p0@1))) (let ((.def_121 (not .def_120))) (let ((.def_122 (=> .def_121 .def_119))) (let ((.def_123 (and act_load@1 true .def_9 .def_15))) (let ((.def_124 (= fluent_treated_plt1_t0@0 fluent_treated_plt1_t0@1))) (let ((.def_125 (not .def_124))) (let ((.def_126 (=> .def_125 .def_123))) (let ((.def_127 (and act_load@1 true .def_10 .def_15))) (let ((.def_128 (= fluent_treated_plt0_t0@0 fluent_treated_plt0_t0@1))) (let ((.def_129 (not .def_128))) (let ((.def_130 (=> .def_129 .def_127))) (let ((.def_131 (and act_make_treatment@1 true .def_0))) (let ((.def_132 (and act_load@1 true .def_12))) (let ((.def_133 (and .def_132 .def_131))) (let ((.def_134 (not .def_133))) (let ((.def_135 (or .def_132 .def_131))) (let ((.def_136 (= fluent_position_free_p1@0 fluent_position_free_p1@1))) (let ((.def_137 (not .def_136))) (let ((.def_138 (=> .def_137 .def_135))) (let ((.def_139 (and act_make_treatment@1 true .def_1))) (let ((.def_140 (and act_load@1 true .def_13))) (let ((.def_141 (and .def_140 .def_139))) (let ((.def_142 (not .def_141))) (let ((.def_143 (or .def_140 .def_139))) (let ((.def_144 (= fluent_position_free_p0@0 fluent_position_free_p0@1))) (let ((.def_145 (not .def_144))) (let ((.def_146 (=> .def_145 .def_143))) (let ((.def_147 (+ t@1 2.0))) (let ((.def_148 (= t@1 .def_147))) (let ((.def_149 (and act_make_treatment@1 true .def_148 .def_5 .def_0 .def_8))) (let ((.def_150 (and act_load@1 true .def_9 .def_12 .def_15))) (let ((.def_151 (and .def_150 .def_149))) (let ((.def_152 (not .def_151))) (let ((.def_153 (or .def_150 .def_149))) (let ((.def_154 (= fluent_ready_plt1_p1_t0@0 fluent_ready_plt1_p1_t0@1))) (let ((.def_155 (not .def_154))) (let ((.def_156 (=> .def_155 .def_153))) (let ((.def_157 (and act_make_treatment@1 true .def_148 .def_6 .def_0 .def_8))) (let ((.def_158 (and act_load@1 true .def_10 .def_12 .def_15))) (let ((.def_159 (and .def_158 .def_157))) (let ((.def_160 (not .def_159))) (let ((.def_161 (or .def_158 .def_157))) (let ((.def_162 (= fluent_ready_plt0_p1_t0@0 fluent_ready_plt0_p1_t0@1))) (let ((.def_163 (not .def_162))) (let ((.def_164 (=> .def_163 .def_161))) (let ((.def_165 (and act_make_treatment@1 true .def_148 .def_5 .def_1 .def_8))) (let ((.def_166 (and act_load@1 true .def_9 .def_13 .def_15))) (let ((.def_167 (and .def_166 .def_165))) (let ((.def_168 (not .def_167))) (let ((.def_169 (or .def_166 .def_165))) (let ((.def_170 (= fluent_ready_plt1_p0_t0@0 fluent_ready_plt1_p0_t0@1))) (let ((.def_171 (not .def_170))) (let ((.def_172 (=> .def_171 .def_169))) (let ((.def_173 (and act_make_treatment@1 true .def_148 .def_6 .def_1 .def_8))) (let ((.def_174 (and act_load@1 true .def_10 .def_13 .def_15))) (let ((.def_175 (and .def_174 .def_173))) (let ((.def_176 (not .def_175))) (let ((.def_177 (or .def_174 .def_173))) (let ((.def_178 (= fluent_ready_plt0_p0_t0@0 fluent_ready_plt0_p0_t0@1))) (let ((.def_179 (not .def_178))) (let ((.def_180 (=> .def_179 .def_177))) (let ((.def_181 (and act_make_treatment@1 true .def_3 .def_5))) (let ((.def_182 (and act_unload_at_depot@1 true .def_21 .def_18))) (let ((.def_183 (and .def_182 .def_181))) (let ((.def_184 (not .def_183))) (let ((.def_185 (and act_load_at_depot@1 true .def_35 .def_32))) (let ((.def_186 (and .def_185 .def_181))) (let ((.def_187 (not .def_186))) (let ((.def_188 (and .def_185 .def_182))) (let ((.def_189 (not .def_188))) (let ((.def_190 (and act_load@1 true .def_4 .def_9))) (let ((.def_191 (and .def_190 .def_181))) (let ((.def_192 (not .def_191))) (let ((.def_193 (and .def_190 .def_182))) (let ((.def_194 (not .def_193))) (let ((.def_195 (and .def_190 .def_185))) (let ((.def_196 (not .def_195))) (let ((.def_197 (or .def_190 .def_185 .def_182 .def_181))) (let ((.def_198 (= fluent_robot_has_r0_plt1@0 fluent_robot_has_r0_plt1@1))) (let ((.def_199 (not .def_198))) (let ((.def_200 (=> .def_199 .def_197))) (let ((.def_201 (and act_make_treatment@1 true .def_3 .def_6))) (let ((.def_202 (and act_unload_at_depot@1 true .def_21 .def_19))) (let ((.def_203 (and .def_202 .def_201))) (let ((.def_204 (not .def_203))) (let ((.def_205 (and act_load_at_depot@1 true .def_35 .def_33))) (let ((.def_206 (and .def_205 .def_201))) (let ((.def_207 (not .def_206))) (let ((.def_208 (and .def_205 .def_202))) (let ((.def_209 (not .def_208))) (let ((.def_210 (and act_load@1 true .def_4 .def_10))) (let ((.def_211 (and .def_210 .def_201))) (let ((.def_212 (not .def_211))) (let ((.def_213 (and .def_210 .def_202))) (let ((.def_214 (not .def_213))) (let ((.def_215 (and .def_210 .def_205))) (let ((.def_216 (not .def_215))) (let ((.def_217 (or .def_210 .def_205 .def_202 .def_201))) (let ((.def_218 (= fluent_robot_has_r0_plt0@0 fluent_robot_has_r0_plt0@1))) (let ((.def_219 (not .def_218))) (let ((.def_220 (=> .def_219 .def_217))) (let ((.def_221 (and act_make_treatment@1 true .def_3))) (let ((.def_222 (and act_unload_at_depot@1 true .def_21))) (let ((.def_223 (and .def_222 .def_221))) (let ((.def_224 (not .def_223))) (let ((.def_225 (and act_load_at_depot@1 true .def_35))) (let ((.def_226 (and .def_225 .def_221))) (let ((.def_227 (not .def_226))) (let ((.def_228 (and .def_225 .def_222))) (let ((.def_229 (not .def_228))) (let ((.def_230 (and act_load@1 true .def_4))) (let ((.def_231 (and .def_230 .def_221))) (let ((.def_232 (not .def_231))) (let ((.def_233 (and .def_230 .def_222))) (let ((.def_234 (not .def_233))) (let ((.def_235 (and .def_230 .def_225))) (let ((.def_236 (not .def_235))) (let ((.def_237 (or .def_230 .def_225 .def_222 .def_221))) (let ((.def_238 (= fluent_robot_free_r0@0 fluent_robot_free_r0@1))) (let ((.def_239 (not .def_238))) (let ((.def_240 (=> .def_239 .def_237))) (let ((.def_241 (and act_move@1 true .def_25 .def_26))) (let ((.def_242 (and act_move@1 true .def_25 .def_29))) (let ((.def_243 (and .def_242 .def_241))) (let ((.def_244 (not .def_243))) (let ((.def_245 (or .def_242 .def_241))) (let ((.def_246 (= fluent_robot_at_r0_p1@0 fluent_robot_at_r0_p1@1))) (let ((.def_247 (not .def_246))) (let ((.def_248 (=> .def_247 .def_245))) (let ((.def_249 (and act_move@1 true .def_25 .def_27))) (let ((.def_250 (and act_move@1 true .def_25 .def_30))) (let ((.def_251 (and .def_250 .def_249))) (let ((.def_252 (not .def_251))) (let ((.def_253 (or .def_250 .def_249))) (let ((.def_254 (= fluent_robot_at_r0_p0@0 fluent_robot_at_r0_p0@1))) (let ((.def_255 (not .def_254))) (let ((.def_256 (=> .def_255 .def_253))) (let ((.def_257 (and .def_256 .def_252 .def_248 .def_244 .def_240 .def_236 .def_234 .def_232 .def_229 .def_227 .def_224 .def_220 .def_216 .def_214 .def_212 .def_209 .def_207 .def_204 .def_200 .def_196 .def_194 .def_192 .def_189 .def_187 .def_184 .def_180 .def_176 .def_172 .def_168 .def_164 .def_160 .def_156 .def_152 .def_146 .def_142 .def_138 .def_134 .def_130 .def_126 .def_122 .def_118 .def_116 .def_114 .def_111 .def_109 .def_106 .def_102 .def_98 .def_96 .def_94 .def_91 .def_89 .def_86 .def_82 .def_78 .def_76 .def_74 .def_71 .def_69 .def_66 .def_62 .def_58 .def_56 .def_54 .def_51 .def_49 .def_46 .def_42))) (let ((.def_258 (= t@1 t@1))) (let ((.def_259 (and act_unload_at_depot@1 act_load_at_depot@1 .def_258))) (let ((.def_260 (not .def_259))) (let ((.def_261 (+ t@1 dur_make_treatment@1))) (let ((.def_262 (= t@1 .def_261))) (let ((.def_263 (and act_load@1 act_make_treatment@1 .def_262))) (let ((.def_264 (not .def_263))) (let ((.def_265 (and act_load@1 act_make_treatment@1 .def_258))) (let ((.def_266 (not .def_265))) (let ((.def_267 (and act_move@1 act_load_at_depot@1 .def_258))) (let ((.def_268 (not .def_267))) (let ((.def_269 (and act_load@1 act_make_treatment@1 .def_148))) (let ((.def_270 (not .def_269))) (let ((.def_271 (and act_load@1 act_load_at_depot@1 .def_258))) (let ((.def_272 (not .def_271))) (let ((.def_273 (and act_load_at_depot@1 act_make_treatment@1 .def_258))) (let ((.def_274 (not .def_273))) (let ((.def_275 (and act_unload_at_depot@1 act_move@1 .def_258))) (let ((.def_276 (not .def_275))) (let ((.def_277 (and act_load@1 act_unload_at_depot@1 .def_258))) (let ((.def_278 (not .def_277))) (let ((.def_279 (and act_load@1 act_move@1 .def_258))) (let ((.def_280 (not .def_279))) (let ((.def_281 (and act_move@1 act_make_treatment@1 .def_258))) (let ((.def_282 (not .def_281))) (let ((.def_283 (and act_unload_at_depot@1 act_make_treatment@1 .def_258))) (let ((.def_284 (not .def_283))) (let ((.def_285 (and .def_284 .def_282 .def_280 .def_278 .def_276 .def_274 .def_272 .def_270 .def_268 .def_266 .def_264 .def_260))) (let ((.def_286 (<= 0.0 t@1))) (let ((.def_287 (and .def_5 .def_1 .def_8))) (let ((.def_288 (ite .def_287 fluent_ready_plt1_p0_t0@1 fluent_ready_plt0_p0_t0@1))) (let ((.def_289 (and .def_6 .def_0 .def_8))) (let ((.def_290 (ite .def_289 fluent_ready_plt0_p1_t0@1 .def_288))) (let ((.def_291 (and .def_5 .def_0 .def_8))) (let ((.def_292 (ite .def_291 fluent_ready_plt1_p1_t0@1 .def_290))) (let ((.def_293 (= .def_292 true))) (let ((.def_294 (=> true .def_293))) (let ((.def_295 (and .def_148 .def_294))) (let ((.def_296 (= fluent_robot_free_r0@1 true))) (let ((.def_297 (=> true .def_296))) (let ((.def_298 (and .def_5 .def_1))) (let ((.def_299 (ite .def_298 fluent_pallet_at_plt1_p0@1 fluent_pallet_at_plt0_p0@1))) (let ((.def_300 (and .def_6 .def_0))) (let ((.def_301 (ite .def_300 fluent_pallet_at_plt0_p1@1 .def_299))) (let ((.def_302 (and .def_5 .def_0))) (let ((.def_303 (ite .def_302 fluent_pallet_at_plt1_p1@1 .def_301))) (let ((.def_304 (= .def_303 true))) (let ((.def_305 (=> true .def_304))) (let ((.def_306 (and .def_3 .def_5))) (let ((.def_307 (ite .def_306 fluent_robot_has_r0_plt1@1 fluent_robot_has_r0_plt0@1))) (let ((.def_308 (= .def_307 false))) (let ((.def_309 (=> true .def_308))) (let ((.def_310 (ite .def_0 fluent_position_free_p1@1 fluent_position_free_p0@1))) (let ((.def_311 (= .def_310 false))) (let ((.def_312 (=> true .def_311))) (let ((.def_313 (and .def_258 .def_312 .def_309 .def_305 .def_297))) (let ((.def_314 (ite .def_0 fluent_position_free_p1@0 fluent_position_free_p0@0))) (let ((.def_315 (and .def_5 .def_8))) (let ((.def_316 (ite .def_315 fluent_treated_plt1_t0@0 fluent_treated_plt0_t0@0))) (let ((.def_317 (and .def_316 .def_314))) (let ((.def_318 (<= .def_261 t@1))) (let ((.def_319 (< (- 1.0) .def_261))) (let ((.def_320 (and .def_319 .def_318))) (let ((.def_321 (=> .def_320 .def_317))) (let ((.def_322 (not .def_316))) (let ((.def_323 (ite .def_306 fluent_robot_has_r0_plt1@0 fluent_robot_has_r0_plt0@0))) (let ((.def_324 (and .def_3 .def_0))) (let ((.def_325 (ite .def_324 fluent_robot_at_r0_p1@0 fluent_robot_at_r0_p0@0))) (let ((.def_326 (and .def_0 .def_8))) (let ((.def_327 (ite .def_326 false true))) (let ((.def_328 (and .def_327 .def_314 .def_325 .def_323 .def_322))) (let ((.def_329 (<= t@1 t@1))) (let ((.def_330 (< (- 1.0) t@1))) (let ((.def_331 (and .def_330 .def_329))) (let ((.def_332 (=> .def_331 .def_328))) (let ((.def_333 (<= dur_make_treatment@1 4.0))) (let ((.def_334 (<= 4.0 dur_make_treatment@1))) (let ((.def_335 (and .def_334 .def_333))) (let ((.def_336 (and .def_335 .def_318 .def_332 .def_321 .def_313 .def_295))) (let ((.def_337 (=> act_make_treatment@1 .def_336))) (let ((.def_338 (and .def_21 .def_18))) (let ((.def_339 (ite .def_338 fluent_robot_has_r0_plt1@1 fluent_robot_has_r0_plt0@1))) (let ((.def_340 (= .def_339 false))) (let ((.def_341 (=> true .def_340))) (let ((.def_342 (and .def_18 .def_23))) (let ((.def_343 (ite .def_342 fluent_pallet_at_plt1_p0@1 fluent_pallet_at_plt0_p0@1))) (let ((.def_344 (and .def_19 .def_22))) (let ((.def_345 (ite .def_344 fluent_pallet_at_plt0_p1@1 .def_343))) (let ((.def_346 (and .def_18 .def_22))) (let ((.def_347 (ite .def_346 fluent_pallet_at_plt1_p1@1 .def_345))) (let ((.def_348 (= .def_347 true))) (let ((.def_349 (=> true .def_348))) (let ((.def_350 (ite .def_338 fluent_robot_has_r0_plt1@0 fluent_robot_has_r0_plt0@0))) (let ((.def_351 (and .def_21 .def_22))) (let ((.def_352 (ite .def_351 fluent_robot_at_r0_p1@0 fluent_robot_at_r0_p0@0))) (let ((.def_353 (ite .def_22 true false))) (let ((.def_354 (and .def_353 .def_352 .def_350 .def_349 .def_297 .def_341))) (let ((.def_355 (=> act_unload_at_depot@1 .def_354))) (let ((.def_356 (and .def_32 .def_37))) (let ((.def_357 (ite .def_356 fluent_pallet_at_plt1_p0@1 fluent_pallet_at_plt0_p0@1))) (let ((.def_358 (and .def_33 .def_36))) (let ((.def_359 (ite .def_358 fluent_pallet_at_plt0_p1@1 .def_357))) (let ((.def_360 (and .def_32 .def_36))) (let ((.def_361 (ite .def_360 fluent_pallet_at_plt1_p1@1 .def_359))) (let ((.def_362 (= .def_361 false))) (let ((.def_363 (=> true .def_362))) (let ((.def_364 (and .def_35 .def_32))) (let ((.def_365 (ite .def_364 fluent_robot_has_r0_plt1@1 fluent_robot_has_r0_plt0@1))) (let ((.def_366 (= .def_365 true))) (let ((.def_367 (=> true .def_366))) (let ((.def_368 (= fluent_robot_free_r0@1 false))) (let ((.def_369 (=> true .def_368))) (let ((.def_370 (ite .def_356 fluent_pallet_at_plt1_p0@0 fluent_pallet_at_plt0_p0@0))) (let ((.def_371 (ite .def_358 fluent_pallet_at_plt0_p1@0 .def_370))) (let ((.def_372 (ite .def_360 fluent_pallet_at_plt1_p1@0 .def_371))) (let ((.def_373 (and .def_35 .def_36))) (let ((.def_374 (ite .def_373 fluent_robot_at_r0_p1@0 fluent_robot_at_r0_p0@0))) (let ((.def_375 (ite .def_36 true false))) (let ((.def_376 (and .def_375 .def_374 fluent_robot_free_r0@0 .def_372 .def_369 .def_367 .def_363))) (let ((.def_377 (=> act_load_at_depot@1 .def_376))) (let ((.def_378 (ite .def_12 fluent_position_free_p1@1 fluent_position_free_p0@1))) (let ((.def_379 (= .def_378 true))) (let ((.def_380 (=> true .def_379))) (let ((.def_381 (and .def_9 .def_15))) (let ((.def_382 (ite .def_381 fluent_treated_plt1_t0@1 fluent_treated_plt0_t0@1))) (let ((.def_383 (= .def_382 true))) (let ((.def_384 (=> true .def_383))) (let ((.def_385 (and .def_4 .def_9))) (let ((.def_386 (ite .def_385 fluent_robot_has_r0_plt1@1 fluent_robot_has_r0_plt0@1))) (let ((.def_387 (= .def_386 true))) (let ((.def_388 (=> true .def_387))) (let ((.def_389 (and .def_9 .def_13))) (let ((.def_390 (ite .def_389 fluent_pallet_at_plt1_p0@1 fluent_pallet_at_plt0_p0@1))) (let ((.def_391 (and .def_10 .def_12))) (let ((.def_392 (ite .def_391 fluent_pallet_at_plt0_p1@1 .def_390))) (let ((.def_393 (and .def_9 .def_12))) (let ((.def_394 (ite .def_393 fluent_pallet_at_plt1_p1@1 .def_392))) (let ((.def_395 (= .def_394 false))) (let ((.def_396 (=> true .def_395))) (let ((.def_397 (and .def_9 .def_13 .def_15))) (let ((.def_398 (ite .def_397 fluent_ready_plt1_p0_t0@1 fluent_ready_plt0_p0_t0@1))) (let ((.def_399 (and .def_10 .def_12 .def_15))) (let ((.def_400 (ite .def_399 fluent_ready_plt0_p1_t0@1 .def_398))) (let ((.def_401 (and .def_9 .def_12 .def_15))) (let ((.def_402 (ite .def_401 fluent_ready_plt1_p1_t0@1 .def_400))) (let ((.def_403 (= .def_402 false))) (let ((.def_404 (=> true .def_403))) (let ((.def_405 (ite .def_389 fluent_pallet_at_plt1_p0@0 fluent_pallet_at_plt0_p0@0))) (let ((.def_406 (ite .def_391 fluent_pallet_at_plt0_p1@0 .def_405))) (let ((.def_407 (ite .def_393 fluent_pallet_at_plt1_p1@0 .def_406))) (let ((.def_408 (and .def_4 .def_12))) (let ((.def_409 (ite .def_408 fluent_robot_at_r0_p1@0 fluent_robot_at_r0_p0@0))) (let ((.def_410 (ite .def_397 fluent_ready_plt1_p0_t0@0 fluent_ready_plt0_p0_t0@0))) (let ((.def_411 (ite .def_399 fluent_ready_plt0_p1_t0@0 .def_410))) (let ((.def_412 (ite .def_401 fluent_ready_plt1_p1_t0@0 .def_411))) (let ((.def_413 (and .def_412 .def_409 fluent_robot_free_r0@0 .def_407 .def_369 .def_404 .def_396 .def_388 .def_384 .def_380))) (let ((.def_414 (=> act_load@1 .def_413))) (let ((.def_415 (and .def_26 .def_30))) (let ((.def_416 (ite .def_415 1.0 0.0))) (let ((.def_417 (and .def_27 .def_29))) (let ((.def_418 (ite .def_417 1.0 .def_416))) (let ((.def_419 (and .def_26 .def_29))) (let ((.def_420 (ite .def_419 0.0 .def_418))) (let ((.def_421 (- fluent_battery_level_r0@0 .def_420))) (let ((.def_422 (= fluent_battery_level_r0@1 .def_421))) (let ((.def_423 (=> true .def_422))) (let ((.def_424 (and .def_25 .def_26))) (let ((.def_425 (ite .def_424 fluent_robot_at_r0_p1@1 fluent_robot_at_r0_p0@1))) (let ((.def_426 (= .def_425 false))) (let ((.def_427 (=> true .def_426))) (let ((.def_428 (and .def_25 .def_29))) (let ((.def_429 (ite .def_428 fluent_robot_at_r0_p1@1 fluent_robot_at_r0_p0@1))) (let ((.def_430 (= .def_429 true))) (let ((.def_431 (=> true .def_430))) (let ((.def_432 (<= .def_420 fluent_battery_level_r0@0))) (let ((.def_433 (ite .def_424 fluent_robot_at_r0_p1@0 fluent_robot_at_r0_p0@0))) (let ((.def_434 (= parameter_move_frompos@1 parameter_move_topos@1))) (let ((.def_435 (not .def_434))) (let ((.def_436 (and .def_435 .def_433 .def_432 .def_431 .def_427 .def_423))) (let ((.def_437 (=> act_move@1 .def_436))) (let ((.def_438 (<= fluent_battery_level_r0@0 100.0))) (let ((.def_439 (<= 0.0 fluent_battery_level_r0@0))) (let ((.def_440 (= false false))) (let ((.def_441 (= fluent_pallet_at_plt1_p0@0 false))) (let ((.def_442 (= fluent_pallet_at_plt0_p0@0 false))) (let ((.def_443 (= fluent_treated_plt1_t0@0 false))) (let ((.def_444 (= fluent_treated_plt0_t0@0 false))) (let ((.def_445 (= fluent_ready_plt1_p1_t0@0 false))) (let ((.def_446 (= fluent_ready_plt0_p1_t0@0 false))) (let ((.def_447 (= fluent_ready_plt1_p0_t0@0 false))) (let ((.def_448 (= fluent_ready_plt0_p0_t0@0 false))) (let ((.def_449 (= fluent_robot_has_r0_plt1@0 false))) (let ((.def_450 (= fluent_robot_has_r0_plt0@0 false))) (let ((.def_451 (= fluent_robot_at_r0_p0@0 false))) (let ((.def_452 (= true true))) (let ((.def_453 (= fluent_position_free_p1@0 true))) (let ((.def_454 (= fluent_position_free_p0@0 true))) (let ((.def_455 (= 0.0 0.0))) (let ((.def_456 (= 1.0 1.0))) (let ((.def_457 (= fluent_battery_level_r0@0 8.0))) (let ((.def_458 (= fluent_pallet_at_plt1_p1@0 true))) (let ((.def_459 (= fluent_pallet_at_plt0_p1@0 true))) (let ((.def_460 (= fluent_robot_free_r0@0 true))) (let ((.def_461 (= fluent_robot_at_r0_p1@0 true))) (let ((.def_462 (and .def_461 .def_460 .def_459 .def_458 .def_457 .def_455 .def_456 .def_456 .def_455 .def_452 .def_454 .def_453 .def_452 .def_451 .def_450 .def_449 .def_448 .def_447 .def_446 .def_445 .def_444 .def_443 .def_442 .def_441 .def_440 .def_440 .def_439 .def_438))) (let ((.def_463 (and .def_462 .def_437 .def_414 .def_377 .def_355 .def_337 .def_286 .def_285 true .def_257 .def_38 .def_35 .def_34 .def_31 .def_28 .def_25 .def_24 .def_21 .def_20 .def_17 .def_16 .def_15 .def_14 .def_11 .def_8 .def_7 .def_4 .def_3 .def_2 true))) .def_463)))))))))))))))))))))))))))))))))))))))))))))))))))))))))))))))))))))))))))))))))))))))))))))))))))))))))))))))))))))))))))))))))))))))))))))))))))))))))))))))))))))))))))))))))))))))))))))))))))))))))))))))))))))))))))))))))))))))))))))))))))))))))))))))))))))))))))))))))))))))))))))))))))))))))))))))))))))))))))))))))))))))))))))))))))))))))))))))))))))))))))))))))))))))))))))))))))))))))))))))))))))))))))))))))))))))))))))))))))))))))))))))))))))))))))))))))
(check-sat)


